NAME : marvin/utils/output1650528383.549126.atsp.1643.tour
COMMENT : Length = 1643
COMMENT : Found by LKH-3 [Keld Helsgaun] Thu Apr 21 17:06:29 2022
TYPE : TOUR
DIMENSION : 45
TOUR_SECTION
1
15
7
33
21
30
5
4
42
22
8
43
6
10
16
45
32
2
14
20
11
40
28
39
35
37
36
19
18
38
44
31
23
17
12
34
24
41
29
3
13
26
27
25
9
-1
EOF
